Route #1: 58 95 65 106 70 18 3 22 100
Route #2: 23 53 34
Route #3: 40 51 82 7 71 5 60 36
Route #4: 46 101 52 61 88 77 45
Route #5: 79 20 28 38 80 72 50 47
Route #6: 26 48 62 81 66 39 96 69
Route #7: 90 31 43 99 24 56 4 33 74
Route #8: 57 21 17 11 42 19 87
Route #9: 63 8 76 85 10 13 103
Route #10: 15 59 89 92 37 9 49 68
Route #11: 83 64 32 41 84 78 86 55 14
Route #12: 102 67 98 94 29 104 54 16
Route #13: 44 75 12 35 73 30 97
Route #14: 27 93 91 25 105 2 6
Cost 40488
